%grid with black boxes
board= [                 
  0, _, _, _, _, 0,
  _, _, 0, 0, _, 0,
  _, 0, _, _, 0, _,
  0, _, _, _, 0, _,
  ];

%segments of words
segments = [|   
  2,   3,  4,   5| %1h
  2,   8,  0,   0| %1v
  5,  11,  0,   0| %2v
  7,   8,  0,   0| %3h
  7,  13,  0,   0| %3v
  15, 16,  0,   0| %4h
  15, 21,  0,   0| %4v
  18, 24,  0,   0| %5v
  20, 21, 22,   0| %6h
  |];
%inputs
rows=4; 
columns=6;
r=1;
s=29; 
max_length_seg=4; %length of the longest segment of numbers
solutions_vector = [8, 16, 22, 25, 28, 2, 9, 13, 18];
sol_card=9;